0 0 0 0
0 1 1 0
0 2 1 0
0 3 0 0
0 4 0 5
0 5 0 10
0 6 0 4
0 7 1 7
0 8 1 7
0 9 2 5
0 10 0 4
0 11 1 12
0 12 0 5
0 13 0 10
0 14 2 4
0 15 1 13
0 16 0 10
0 17 0 17
0 18 0 21
0 19 0 19
0 20 0 23
0 21 0 25
0 22 0 21
0 23 0 31
0 24 0 25
0 25 2 15
0 26 2 17
0 27 1 24
0 28 0 25
0 29 0 33
0 30 1 27
0 31 0 35
